p cnf 208 1538
-1 -2 0
-3 -4 0
-5 -6 0
-7 -8 0
-9 -10 0
-11 -12 0
-13 -14 0
-15 -14 0
-16 -17 0
-18 -17 0
-19 -20 0
-21 -20 0
-22 -23 0
-24 -23 0
-25 -26 0
-27 -26 0
-28 -29 0
-30 -31 0
-32 -31 0
-33 -34 0
-35 -34 0
-36 -37 0
-38 -37 0
-39 -40 0
-41 -40 0
-42 -43 0
-44 -45 0
-46 -47 0
-48 -49 0
-50 -49 0
-51 -52 0
-53 -52 0
-54 -55 -56 0
-57 -58 -59 0
-60 -61 -62 0
-63 -64 -65 0
-66 -67 -68 0
-69 -70 -71 0
-72 -73 -74 0
-15 13 0
15 -13 0
-75 -76 0
-77 -76 0
-78 -76 0
-79 -80 0
-81 -80 0
-82 -80 0
-18 16 0
18 -16 0
-21 19 0
-83 -84 0
-85 -84 0
-86 -84 0
-24 22 0
-87 -88 0
-89 -88 0
-90 -88 0
-27 -25 0
-91 -92 -93 0
-94 -95 -96 0
-32 -30 0
-97 -98 -99 0
-100 -101 0
-102 -101 0
-103 -101 0
-104 -105 0
-106 -105 0
-107 -105 0
-35 33 0
35 -33 0
-108 -109 0
-110 -109 0
-111 -109 0
38 -36 0
-112 -113 0
-114 -113 0
-115 -113 0
-41 39 0
-116 -117 -118 0
-119 -120 -121 0
-122 -123 0
-124 -123 0
-125 -126 -127 0
-128 -129 -130 0
-131 -132 -133 0
-134 -135 -136 0
-137 -138 -139 0
-140 -141 -142 0
-143 -144 0
-145 -144 0
-54 55 56 0
146 -147 148 0
78 -77 75 0
149 150 0
151 -152 153 0
-125 126 127 0
57 -154 0
58 -154 0
-59 -154 0
-1 -154 0
-2 -154 0
-155 -154 0
-3 -154 0
156 -4 -154 0
-156 4 -154 0
-60 -157 0
-61 -157 0
62 -157 0
-5 -157 0
-6 -157 0
-11 -157 0
-12 -157 0
-7 9 -157 0
7 -9 -157 0
-8 10 -157 0
8 -10 -157 0
82 -158 0
81 -158 0
79 -158 0
-80 -158 0
-18 -158 0
-16 -158 0
-17 -158 0
-35 -158 0
-33 -158 0
-34 -158 0
-21 -158 0
-19 -158 0
-20 159 -158 0
20 -159 -158 0
116 -160 0
-117 -160 0
118 -160 0
-42 -160 0
-43 -160 0
-161 -160 0
-44 46 -160 0
44 -46 -160 0
-45 47 -160 0
45 -47 -160 0
-63 64 65 0
162 163 0
164 163 0
-162 -163 0
120 121 0
119 121 0
-165 -126 -127 0
-166 -135 -136 0
-167 -132 -133 0
-168 -141 -142 0
-161 -144 0
-156 -49 0
-169 -67 -68 0
-170 -152 -153 0
-159 -101 0
-44 -120 -121 0
45 -120 -121 0
170 -171 -98 -99 0
-170 171 -98 -99 0
172 -173 -123 0
-172 173 -123 0
165 -167 -129 -130 0
-165 167 -129 -130 0
166 -168 -138 -139 0
-166 168 -138 -139 0
-155 -52 0
-3 -174 -175 0
-4 -174 -175 0
-7 -64 -65 0
-8 -64 -65 0
-1 -55 -56 0
-2 -55 -56 0
5 -148 0
-6 -148 0
-28 -176 -150 0
-29 -176 -150 0
42 -177 -178 0
-43 -177 -178 0
-134 -136 179 0
-134 -136 -180 0
-125 134 135 -136 0
126 134 135 -136 0
-127 134 135 -136 0
-134 -179 -180 0
135 -179 -180 0
-136 -179 -180 0
-181 179 -180 0
177 179 -180 0
-178 179 -180 0
182 -183 -57 0
182 -183 -58 0
182 -183 -59 0
57 58 -59 -60 0
57 58 -59 -61 0
57 58 -59 -62 0
-182 -57 -58 0
-183 -57 -58 0
-182 -183 -69 0
-182 -183 -70 0
-182 -71 0
60 61 -62 -184 0
60 61 -62 -185 0
57 -60 -61 0
-58 -60 -61 0
-59 -60 -61 0
182 -69 -70 0
-183 -69 -70 0
60 184 -185 0
-61 184 -185 0
-62 184 -185 0
-184 -185 91 0
-184 -92 0
-184 -185 -93 0
-69 -71 -97 0
-69 -71 -98 0
-69 -71 -99 0
-57 82 81 -79 0
58 82 81 -79 0
-59 82 81 -79 0
69 -82 81 -79 0
-70 -82 81 0
-71 -82 81 -79 0
-60 86 85 -83 0
61 86 85 -83 0
-62 86 85 -83 0
86 -85 -83 -91 0
86 -85 -83 -92 0
86 -85 -93 0
-69 -97 -98 0
70 -97 -98 0
-71 -97 -98 0
184 91 92 -93 0
-185 91 92 -93 0
-91 -93 116 0
-91 -93 -117 0
-91 -93 -118 0
-164 186 -187 0
162 186 -187 0
-163 186 -187 0
-97 -99 -124 0
-97 -99 -122 0
-97 -99 -123 0
97 -188 189 -190 0
-98 -188 189 0
-99 -188 189 -190 0
-188 -189 -190 -128 0
-188 -189 -190 -129 0
-188 -189 -130 0
111 -110 -108 -116 0
111 -110 -108 -117 0
111 -110 -118 0
-111 -110 -108 -137 0
-111 -110 -108 -138 0
-111 -110 -139 0
94 95 -96 0
-91 116 117 -118 0
92 116 117 -118 0
-93 116 117 -118 0
-116 -118 -191 0
-116 -118 -192 0
-97 124 -122 0
98 124 -122 0
-99 124 -122 0
-124 -122 128 0
-124 -129 0
-124 -122 -130 0
124 128 129 -130 0
-122 128 129 -130 0
-123 128 129 -130 0
-128 -130 137 0
-128 -130 -138 0
-128 -130 -139 0
-137 -139 191 0
-137 -139 -192 0
-128 137 138 -139 0
129 137 138 -139 0
-130 137 138 -139 0
-116 191 -192 0
117 191 -192 0
-118 191 -192 0
-137 -191 -192 0
138 -191 -192 0
-139 -191 -192 0
-94 -96 119 0
-94 -96 -120 0
-94 -96 -121 0
53 -51 -193 0
53 -51 -174 0
53 -51 -175 0
63 64 -65 0
174 -175 -63 0
174 -175 -64 0
174 -175 -65 0
-53 -51 -72 0
-53 -51 -73 0
-53 -74 0
-53 -193 -174 0
-51 -193 -174 0
-52 -193 -174 0
-63 89 -87 0
64 89 -87 0
-65 89 -87 0
53 -72 -73 0
-51 -72 -73 0
-52 -72 -73 0
63 194 -195 0
-64 194 -195 0
-65 194 -195 0
-194 94 0
-194 -95 0
-194 -96 0
-15 -73 -74 0
-13 -73 -74 0
-14 -73 -74 0
-193 196 197 -198 0
174 196 197 -198 0
-175 196 197 -198 0
-72 -74 -164 0
-72 -74 -162 0
-72 -74 -163 0
72 -196 197 0
-73 -196 197 0
-74 -196 197 0
90 -89 -87 -94 0
90 -89 -87 -95 0
90 -89 -96 0
-27 -88 0
-25 -88 0
-26 -88 0
-32 -95 -96 0
-30 -95 -96 0
-31 -95 -96 0
-72 -164 -162 0
73 -164 -162 0
-74 -164 -162 0
193 -63 -64 0
-174 -63 -64 0
-175 -63 -64 0
164 106 -104 0
-162 -107 106 0
-163 106 -104 0
-115 -114 -112 -140 0
-115 -114 -112 -141 0
-115 -114 -142 0
-35 -105 0
-33 -105 0
-34 -105 0
-107 -106 -104 -131 0
-107 -106 -104 -132 0
-107 -106 -133 0
-41 -113 0
-39 -113 0
-40 -113 0
115 -114 -112 -119 0
115 -114 -112 -120 0
115 -114 -121 0
-94 119 120 0
95 119 120 0
-96 119 120 0
-119 -121 -145 0
-119 -121 -143 0
-119 -121 -144 0
-186 -187 131 0
-186 -132 0
-186 -187 -133 0
-131 -133 140 0
-131 -133 -141 0
-131 -133 -142 0
186 131 132 -133 0
-187 131 132 -133 0
-140 -142 145 0
-140 -142 -143 0
-140 -142 -144 0
-131 140 141 -142 0
132 140 141 -142 0
-133 140 141 -142 0
-119 145 -143 0
120 145 -143 0
-121 145 -143 0
-140 -145 -143 0
141 -145 -143 0
-142 -145 -143 0
50 -48 -54 0
50 -48 -55 0
50 -48 -56 0
-50 -54 -55 0
-48 -54 -55 0
-49 -54 -55 0
-50 -48 -66 0
-50 -48 -67 0
-50 -68 0
54 55 -56 -146 0
54 55 -56 -147 0
54 55 -56 -148 0
54 -146 -147 0
-55 -146 -147 0
-56 -146 -147 0
-199 -200 149 0
-199 -176 0
-199 -200 -150 0
146 199 -200 0
-147 199 -200 0
-148 199 -200 0
50 -66 -67 0
-48 -66 -67 0
-49 -66 -67 0
-66 -68 -151 0
-66 -68 -152 0
-66 -68 -153 0
-54 78 77 -75 0
55 78 77 -75 0
-56 78 77 -75 0
66 -78 77 -75 0
-67 -78 77 0
-68 -78 77 -75 0
-146 201 202 -203 0
147 201 202 -203 0
-148 201 202 -203 0
-18 -76 0
-16 -76 0
-17 -76 0
201 -202 -149 0
201 -202 -176 0
201 -202 -150 0
-149 -150 181 0
-149 -150 -177 0
-149 -150 -178 0
199 149 176 0
-200 149 176 0
-66 -151 -152 0
67 -151 -152 0
-68 -151 -152 0
-151 -153 -204 0
-151 -153 -205 0
151 -103 102 -100 0
-152 -103 102 0
-153 -103 102 -100 0
-103 -102 -100 -125 0
-103 -102 -100 -126 0
-103 -102 -127 0
206 -207 -181 0
206 -207 -177 0
206 -207 -178 0
-206 -207 -208 -134 0
-206 -207 -208 -135 0
-206 -207 -136 0
-149 177 -178 0
176 177 -178 0
-150 177 -178 0
-151 204 -205 0
152 204 -205 0
-153 204 -205 0
-204 -205 125 0
-204 -126 0
-204 -205 -127 0
-125 -127 134 0
-125 -127 -135 0
-125 -127 -136 0
204 125 126 -127 0
-205 125 126 -127 0
206 -134 -135 0
207 -134 -135 0
-208 -134 -135 0
115 -140 -141 0
114 -140 -141 0
-112 -140 -141 0
-113 -140 -141 0
-57 -59 -82 0
-57 -59 -81 0
-57 -59 -79 0
-57 -59 -80 0
1 -3 -58 -59 0
-1 3 -58 -59 0
2 -4 -58 -59 0
-2 4 -58 -59 0
-60 -62 -86 0
-60 -62 -85 0
-60 -62 -83 0
-60 -62 -84 0
69 70 -71 82 0
69 70 -71 -81 0
69 70 -71 -79 0
69 70 -71 -80 0
-15 -70 -71 0
-13 -70 -71 0
169 -14 -70 -71 0
-169 14 -70 -71 0
-82 -81 -188 0
-82 -81 -189 0
-82 -81 -79 -190 0
82 -81 86 0
82 -81 -85 0
82 -81 -79 -83 0
82 -81 -84 0
-82 -86 85 0
81 -86 85 0
-79 -86 85 -83 0
-80 -86 85 0
-86 -85 -111 0
-86 -85 -110 0
-86 -85 -83 -108 0
-86 -85 -109 0
107 -131 -132 0
106 -131 -132 0
-104 -131 -132 0
-105 -131 -132 0
-86 -91 -92 0
85 -91 -92 0
-83 -91 -92 0
-84 -91 -92 0
-115 -119 -120 0
114 -119 -120 0
-112 -119 -120 0
-113 -119 -120 0
82 188 189 -190 0
81 188 189 -190 0
-79 188 189 -190 0
-80 188 189 -190 0
-107 -115 114 0
106 -115 114 0
-104 -115 114 -112 0
-105 -115 114 0
188 -189 111 0
188 -189 -110 0
188 -189 -190 -108 0
188 -189 -109 0
86 111 110 -108 0
85 111 110 -108 0
-83 111 110 -108 0
-84 111 110 -108 0
-188 -111 110 0
189 -111 110 0
-190 -111 110 -108 0
-111 -116 -117 0
110 -116 -117 0
-108 -116 -117 0
-109 -116 -117 0
107 -106 115 0
107 -106 -114 0
107 -104 -112 0
107 -106 -113 0
188 -128 -129 0
189 -128 -129 0
-190 -128 -129 0
111 -137 -138 0
110 -137 -138 0
-108 -137 -138 0
-109 -137 -138 0
164 162 107 0
164 162 -106 0
164 162 -104 0
164 162 -105 0
-193 -175 0
-63 -65 -90 0
-63 -65 -89 0
-63 -65 -87 0
-63 -65 -88 0
-196 -90 89 0
197 -90 89 0
-90 89 -87 0
72 73 -74 0
-196 -197 -107 0
-196 -197 -106 0
-196 -197 -104 0
-196 -197 -105 0
196 -197 90 0
196 -197 -89 0
196 -197 -87 0
196 -197 -88 0
-90 -94 -95 0
89 -94 -95 0
-87 -94 -95 0
-88 -94 -95 0
-90 -89 -115 0
-90 -89 -114 0
-90 -87 -112 0
-90 -89 -113 0
90 115 114 -112 0
89 115 114 -112 0
-87 115 114 -112 0
-88 115 114 -112 0
107 106 -104 0
42 -44 -117 -118 0
-42 44 -117 -118 0
43 -45 -117 -118 0
-43 45 -117 -118 0
97 98 -99 188 0
97 98 -99 -189 0
97 98 -99 -190 0
-54 -56 -78 0
-54 -56 -77 0
-54 -56 -75 0
-54 -56 -76 0
66 67 -68 78 0
66 67 -68 -77 0
66 67 -68 -75 0
66 67 -68 -76 0
-78 -77 -103 0
-78 -77 -102 0
-78 -77 -75 -100 0
-78 -77 -101 0
78 -77 201 0
78 -77 -202 0
78 -77 -203 0
-78 -201 202 0
77 -201 202 0
-75 -201 -203 0
-76 -201 202 0
-149 -176 0
-201 -202 -206 0
-201 -202 -207 0
-201 -202 -203 0
151 152 -153 103 0
151 152 -153 -102 0
151 152 -153 -100 0
151 152 -153 -101 0
78 103 102 -100 0
77 103 102 -100 0
-75 103 102 -100 0
-76 103 102 -100 0
5 -7 -61 -62 0
-5 7 -61 -62 0
6 -8 -61 -62 0
-6 8 -61 -62 0
103 -102 206 0
103 -102 -207 0
103 -102 -100 -208 0
201 206 207 -208 0
202 206 207 -208 0
-203 206 207 -208 0
-103 -206 207 0
102 -206 207 0
-100 -206 207 -208 0
-101 -206 207 0
-181 -177 0
103 -125 -126 0
102 -125 -126 0
-100 -125 -126 0
-101 -125 -126 0
125 -134 135 136 0
-126 -134 135 136 0
127 -134 135 136 0
-166 135 136 0
-165 -134 135 136 0
140 -145 143 0
-141 -145 143 0
142 -145 143 0
-168 -145 143 0
-161 -145 143 0
-186 187 -131 0
-186 187 133 0
-167 -186 187 0
-173 187 0
131 -132 133 -140 0
131 -132 133 -141 0
131 -132 133 142 0
-168 131 -132 133 0
-167 131 133 0
186 -131 132 133 0
-173 -131 132 133 0
-167 132 133 0
28 -32 -92 -93 0
-28 32 -92 -93 0
-30 -92 -93 0
29 -31 -92 -93 0
-29 31 -92 -93 0
140 -141 142 145 0
140 -141 142 143 0
140 -141 142 -144 0
-161 140 -141 142 0
-168 140 142 0
131 -140 141 142 0
-132 -140 141 142 0
133 -140 141 142 0
-167 -140 141 142 0
-168 141 142 0
50 66 67 68 0
48 66 67 68 0
-49 66 67 68 0
-169 66 68 0
-156 66 67 68 0
66 -67 68 151 0
66 -67 68 152 0
66 -67 68 -153 0
-170 66 -67 68 0
-50 48 66 0
-50 48 67 0
-169 -50 48 0
-151 -103 102 100 0
153 -103 102 100 0
-170 -103 102 100 0
66 151 153 0
-67 151 153 0
68 151 153 0
-170 151 153 0
-169 151 153 0
-103 -102 100 125 0
-103 -102 100 126 0
-165 -103 -102 100 0
-204 205 -125 0
-204 205 127 0
-172 -204 205 0
165 -204 205 0
125 -126 127 -134 0
125 -126 127 -135 0
125 -126 127 136 0
-165 125 127 0
-166 125 -126 127 0
-164 -163 0
187 -131 132 133 0
119 145 143 144 0
-120 145 143 144 0
121 145 143 144 0
-44 145 143 144 0
-45 145 143 144 0
161 145 143 144 0
18 -21 -80 0
-18 21 -80 0
16 -19 -80 0
-16 19 -80 0
17 -20 -80 0
-17 20 -80 0
24 -27 -84 0
-24 27 -84 0
22 -25 -84 0
-22 25 -84 0
23 -26 -84 0
-23 26 -84 0
38 -41 -109 0
-38 41 -109 0
36 -39 -109 0
-36 39 -109 0
37 -40 -109 0
-37 40 -109 0
-194 195 0
11 195 0
-12 195 0
134 -179 180 0
-135 -179 180 0
136 -179 180 0
-46 180 0
-47 180 0
-166 -179 180 0
134 -135 136 179 0
134 -135 136 180 0
-166 134 136 0
-46 134 -135 136 0
-47 134 -135 136 0
50 48 49 54 0
50 48 49 55 0
50 49 -56 0
-156 48 0
-1 50 48 49 0
-2 50 48 49 0
-50 55 56 0
48 55 56 0
-49 55 56 0
-1 55 56 0
-2 55 56 0
-156 55 56 0
-151 152 153 103 0
-151 152 153 -102 0
-151 152 153 100 0
-151 152 153 -101 0
-170 152 153 0
-159 -151 152 153 0
103 126 127 0
102 126 127 0
100 126 127 0
-101 126 127 0
-165 126 127 0
-159 126 127 0
-124 122 -128 0
-124 122 130 0
-165 -124 122 0
-173 -124 122 0
172 -167 -124 122 0
-172 167 -124 122 0
-164 -107 106 104 0
163 -107 106 104 0
-171 -107 106 104 0
35 -107 106 104 0
33 -107 106 104 0
124 -128 129 130 0
122 -128 129 130 0
-123 -128 129 130 0
-172 -128 129 130 0
-167 129 130 0
-173 165 -128 129 130 0
173 -165 -128 129 130 0
-53 193 174 175 0
51 193 174 175 0
-52 193 174 175 0
-155 193 174 175 0
-3 174 175 0
-4 174 175 0
-193 174 63 0
-193 174 64 0
-193 174 -65 0
-7 -193 174 0
-8 -193 174 0
-193 64 65 0
-174 64 65 0
175 64 65 0
-3 64 65 0
-4 64 65 0
-7 64 65 0
-8 64 65 0
72 -73 74 164 0
72 -73 74 162 0
72 -73 74 -163 0
-171 72 -73 74 0
15 72 -73 74 0
13 72 -73 74 0
-14 72 74 0
-66 -78 77 75 0
68 -78 77 75 0
-169 -78 77 75 0
194 -94 95 96 0
-11 -94 95 96 0
-12 -94 95 96 0
32 -94 95 96 0
-30 95 96 0
-31 95 96 0
195 -94 95 96 0
-107 -106 104 131 0
-107 -106 104 132 0
-167 -107 -106 104 0
-35 -106 104 0
-33 -106 104 0
-115 -114 112 140 0
-115 -114 112 141 0
-168 -115 -114 112 0
-40 -115 112 0
53 51 52 193 0
53 51 52 174 0
53 52 -175 0
-3 53 51 52 0
-4 53 51 52 0
-155 51 0
128 -137 138 139 0
-129 -137 138 139 0
130 -137 138 139 0
-165 -137 138 139 0
-168 138 139 0
-167 166 -137 138 139 0
167 -166 -137 138 139 0
128 -129 130 -137 0
128 -129 130 -138 0
128 -129 130 139 0
-166 128 -129 130 0
-167 128 130 0
165 -168 128 -129 130 0
-165 168 128 -129 130 0
97 124 122 123 0
-98 124 122 123 0
99 124 122 123 0
-170 124 122 123 0
-173 122 123 0
-171 172 124 122 123 0
171 -172 124 122 123 0
-54 146 148 0
-55 146 148 0
56 146 148 0
-5 146 148 0
-6 146 0
1 146 148 0
-2 146 148 0
-146 147 -199 0
-146 147 200 0
-5 147 0
-6 147 0
9 -146 147 0
-10 -146 147 0
-199 200 -149 0
-199 200 150 0
-9 200 0
-10 200 0
-28 -199 200 0
-29 -199 200 0
97 -98 99 -124 0
97 -98 99 122 0
97 -98 99 -123 0
-172 97 -98 99 0
-171 97 99 0
170 -173 97 -98 99 0
-170 173 97 -98 99 0
199 176 150 0
-28 176 150 0
-29 176 150 0
-9 176 150 0
-10 176 150 0
-207 208 134 0
-207 208 135 0
-207 208 -136 0
-38 208 0
-36 208 0
-37 208 0
-166 -207 208 0
149 -181 0
-176 -181 0
150 -181 0
-42 177 178 0
-43 177 178 0
28 -181 0
-29 -181 0
-177 178 -179 0
-177 178 180 0
-42 181 178 0
-43 181 178 0
46 -177 178 0
-47 -177 178 0
-181 -178 0
206 134 135 136 0
207 134 135 136 0
208 134 135 136 0
-38 134 135 136 0
-36 134 135 136 0
-37 134 135 136 0
94 -95 96 -119 0
94 -95 96 -120 0
94 -95 96 121 0
-44 94 -95 96 0
-45 94 -95 96 0
-32 94 96 0
-30 94 96 0
31 94 -95 96 0
78 103 102 101 0
77 103 102 101 0
75 103 102 100 101 0
-76 103 102 101 0
-159 100 0
-18 103 102 100 101 0
-16 103 102 100 101 0
-17 103 102 100 101 0
103 -102 100 208 0
-38 103 -102 100 0
-36 103 -102 100 0
-37 103 -102 100 0
137 -191 192 0
-138 -191 192 0
139 -191 192 0
-166 -191 192 0
-161 -191 192 0
-46 -191 192 0
-168 47 -191 192 0
168 -47 -191 192 0
137 -138 139 191 0
137 -138 139 192 0
-46 137 -138 139 0
-47 137 -138 139 0
-168 137 139 0
166 -161 137 -138 139 0
-166 161 137 -138 139 0
63 90 89 87 88 0
-64 90 89 87 88 0
65 90 89 87 88 0
-7 90 89 87 88 0
-8 90 89 87 88 0
-27 87 0
-25 90 87 0
-26 87 0
-53 51 72 0
-53 51 73 0
-15 -53 51 0
-13 -53 51 0
-14 -53 51 0
53 72 73 0
51 72 73 0
-52 72 73 0
-155 72 73 0
-15 73 74 0
-13 72 73 0
115 140 141 142 0
114 140 141 142 0
112 140 141 142 0
-113 140 141 142 0
-41 140 141 142 0
-39 140 141 142 0
-40 140 141 142 0
107 131 132 133 0
106 131 132 133 0
104 131 132 133 0
-105 131 132 133 0
-35 131 132 133 0
-33 131 132 133 0
-34 131 132 133 0
-66 67 68 78 0
-66 67 68 -77 0
-66 67 68 75 0
-66 67 68 -76 0
-169 67 68 0
-18 -66 67 68 0
-16 -66 67 68 0
-17 -66 67 68 0
54 78 75 76 0
-55 78 75 76 0
56 78 75 76 0
-18 75 0
-16 75 0
-17 75 0
-1 78 75 76 0
-2 78 75 76 0
-77 75 -103 0
-77 75 -102 0
-77 75 100 0
-77 75 -101 0
-159 -77 75 0
115 -114 112 119 0
115 -114 112 120 0
-44 115 -114 112 0
-45 115 -114 112 0
40 115 -114 112 0
147 -148 0
200 176 150 0
100 -206 207 208 0
-159 -206 207 208 0
-206 181 177 178 0
207 181 177 178 0
38 181 177 178 0
-36 181 177 178 0
-37 181 177 178 0
69 97 98 99 0
-70 97 98 99 0
71 97 98 99 0
-169 97 98 99 0
-15 97 98 99 0
-13 97 98 99 0
-14 170 97 98 99 0
14 -170 97 98 99 0
-97 -188 189 190 0
99 -188 189 190 0
-170 -188 189 190 0
-34 -188 190 0
-171 159 -188 189 190 0
171 -159 -188 189 190 0
-188 -189 190 128 0
-188 -189 190 129 0
-165 -188 -189 190 0
159 -167 -188 -189 190 0
-159 167 -188 -189 190 0
69 -70 71 97 0
69 -70 71 98 0
69 -70 71 -99 0
-170 69 -70 71 0
-15 69 71 0
-13 69 71 0
-14 69 71 0
169 -171 69 -70 71 0
-169 171 69 -70 71 0
63 -64 65 -90 0
63 -64 65 -89 0
63 -64 65 87 0
63 -64 65 -88 0
-27 63 -64 65 0
-25 63 -64 65 0
-26 63 -64 65 0
-7 63 -64 0
-8 63 -64 0
90 -89 87 94 0
90 -89 87 95 0
-32 90 -89 87 0
-30 90 -89 87 0
-31 90 -89 87 0
-25 -89 87 0
193 -174 175 -196 0
193 -174 175 -197 0
-21 193 -174 175 0
-19 193 -174 175 0
-20 193 -174 175 0
3 193 -174 175 0
-4 193 -174 0
-116 -118 160 0
-46 192 160 0
47 -161 192 0
-47 161 191 192 160 0
54 -55 56 -78 0
54 -55 56 -77 0
54 -55 56 75 0
54 -55 56 -76 0
-1 54 -55 0
-2 54 -55 0
-18 54 -55 56 0
-16 54 -55 56 0
-17 54 -55 56 0
-57 -58 154 0
156 -155 183 0
-156 155 182 183 154 0
182 69 70 71 0
183 69 70 71 0
-156 69 70 71 0
-155 169 69 70 71 0
155 -169 69 70 71 0
-182 57 58 59 0
183 57 58 59 0
-156 57 58 59 0
-3 58 59 0
-4 58 59 0
-155 2 57 58 59 0
155 -2 57 58 59 0
116 -117 118 -191 0
116 -117 118 192 0
-46 116 -117 118 0
-47 116 -117 118 0
-44 116 118 0
-45 116 118 0
-42 116 -117 118 0
43 -161 116 -117 118 0
-43 161 116 -117 118 0
188 128 129 130 0
189 128 129 130 0
190 128 129 130 0
-159 128 129 130 0
-35 128 129 130 0
-33 128 129 130 0
-34 165 128 129 130 0
34 -165 128 129 130 0
104 -115 114 112 0
-35 -115 114 112 0
-33 -115 114 112 0
-34 -115 114 112 0
-182 183 69 0
-182 183 70 0
-169 -182 183 0
-155 -182 183 0
-15 -182 183 0
-13 -182 183 0
156 -14 -182 183 0
-156 14 -182 183 0
196 107 106 105 0
197 107 106 105 0
-21 107 106 105 0
-19 107 106 105 0
-20 107 106 105 0
-35 107 104 0
33 107 106 105 0
-34 104 0
107 -106 104 112 0
-41 107 -106 104 0
-39 107 -106 104 0
-40 107 -106 104 0
-90 94 95 0
89 94 95 0
87 94 95 0
-88 94 95 0
-27 94 95 0
-25 94 95 0
-26 94 95 0
-32 94 95 0
-30 94 95 0
-31 94 95 0
-21 -90 89 0
-19 -90 89 0
-20 -90 89 0
25 -90 89 0
-72 73 74 196 0
-72 73 74 -197 0
-21 -72 73 74 0
-19 -72 73 74 0
-20 -72 73 74 0
13 -72 73 74 0
-14 73 74 0
-90 -89 87 112 0
-41 -90 -89 87 0
-39 -90 -89 87 0
-40 -90 -89 87 0
90 115 114 113 0
89 115 114 113 0
87 115 114 112 113 0
-88 115 114 113 0
-27 115 114 112 113 0
-25 115 114 112 113 0
-26 115 114 112 113 0
-41 112 0
-39 112 0
-40 114 112 0
201 -202 203 0
24 201 203 0
22 201 203 0
-23 203 0
-146 -148 0
-97 98 99 188 0
-97 98 99 -189 0
-97 98 99 190 0
-159 -97 98 99 0
-171 98 99 0
-35 -97 98 99 0
-33 -97 98 99 0
170 -34 -97 98 99 0
-170 34 -97 98 99 0
75 -201 202 203 0
-24 -201 203 0
-22 -201 203 0
18 -201 202 203 0
16 -201 202 203 0
-17 -201 202 203 0
-202 203 -206 0
-202 203 -207 0
-202 203 208 0
-24 -202 203 0
-22 -202 203 0
38 -202 203 0
36 -202 203 0
-37 -202 203 0
60 61 -62 157 0
-11 185 0
-9 184 185 157 0
10 -12 185 0
-10 12 184 185 157 0
-60 61 62 -184 0
-60 61 62 185 0
-9 -60 61 62 0
-10 -60 61 62 0
-7 61 62 0
-8 61 62 0
-11 -60 61 62 0
-5 -60 61 62 0
6 -12 -60 61 62 0
-6 12 -60 61 62 0
-111 -110 108 137 0
-111 -110 108 138 0
-166 -111 -110 108 0
-41 -110 108 0
-39 -110 108 0
-40 -110 108 0
-38 -111 -110 108 0
-36 -110 108 0
37 -168 -111 -110 108 0
-37 168 -111 -110 108 0
-155 -1 57 58 59 0
-1 -52 57 58 59 0
-1 57 58 59 193 174 175 0
-1 51 57 58 59 0
-1 57 58 59 72 73 0
-1 57 58 59 69 70 71 0
-57 60 61 62 0
-58 60 61 62 0
59 60 61 62 0
-1 60 61 62 0
-2 60 61 62 0
-3 5 60 61 62 0
3 -5 61 62 0
-4 6 60 61 62 0
4 -6 60 61 62 0
-57 58 59 60 0
-57 58 59 61 0
-57 58 59 -62 0
-5 -57 58 59 0
-6 -57 58 59 0
1 -7 -57 58 59 0
-1 7 -57 58 59 0
2 -8 -57 58 59 0
-2 8 -57 58 59 0
184 -91 92 93 0
185 -91 92 93 0
-9 -91 92 93 0
-10 -91 92 93 0
-32 92 93 0
-30 92 93 0
-31 92 93 0
-11 28 -91 92 93 0
11 -28 -91 92 93 0
-12 29 -91 92 93 0
12 -29 -91 92 93 0
91 -116 117 118 0
-92 -116 117 118 0
93 -116 117 118 0
-28 -116 117 118 0
-29 -116 117 118 0
-44 117 118 0
-45 117 118 0
-32 42 -116 117 118 0
32 -42 -116 117 118 0
-30 -116 117 118 0
-31 43 -116 117 118 0
31 -43 -116 117 118 0
111 137 138 139 0
110 137 138 139 0
108 137 138 139 0
-109 137 138 139 0
-38 137 138 139 0
-36 137 138 139 0
-37 137 138 139 0
-41 137 138 139 0
-39 137 138 139 0
-40 166 137 138 139 0
40 -166 137 138 139 0
91 -92 93 -116 0
91 -92 93 -117 0
91 -92 93 118 0
-42 91 -92 93 0
-43 91 -92 93 0
-32 91 93 0
-30 91 93 0
-31 91 93 0
28 -44 91 -92 93 0
-28 44 91 -92 93 0
29 -45 91 -92 93 0
-29 45 91 -92 93 0
-184 185 -91 0
-184 185 93 0
-28 -184 185 0
-29 -184 185 0
-12 -184 185 0
-32 -184 185 0
9 -30 -184 185 0
-9 30 -184 185 0
10 -31 -184 185 0
-10 31 -184 185 0
206 -207 208 0
-201 -202 208 0
208 181 177 178 0
111 -110 108 116 0
111 -110 108 117 0
-42 111 -110 108 0
-43 111 -110 108 0
38 -44 111 -110 108 0
-38 44 -110 108 0
37 -45 111 -110 108 0
-37 45 111 -110 108 0
60 86 85 83 84 0
-61 86 85 83 84 0
62 86 85 83 84 0
-5 86 85 83 84 0
-6 86 85 83 84 0
-27 83 84 0
-25 83 84 0
-26 83 84 0
-24 86 85 83 84 0
-7 22 86 85 83 84 0
7 -22 86 85 83 84 0
-8 23 86 85 83 84 0
8 -23 86 85 83 84 0
57 82 81 79 80 0
-58 82 81 79 80 0
59 82 81 79 80 0
-1 82 81 79 80 0
-2 82 81 79 80 0
-21 79 80 0
-19 79 80 0
-20 79 80 0
-18 82 81 79 80 0
-3 16 82 81 79 80 0
3 -16 82 81 79 80 0
-4 17 82 81 79 80 0
4 -17 82 81 79 80 0
-197 198 0
-196 198 0
-21 198 0
19 198 0
-20 198 0
198 -90 89 0
193 -174 175 198 0
198 107 106 105 0
-72 73 74 198 0
-69 -82 81 79 0
71 -82 81 79 0
-169 -82 81 79 0
-21 -82 79 0
-19 -82 79 0
-20 -82 79 0
-15 18 -82 81 79 0
15 -18 -82 81 79 0
-13 16 -82 81 79 0
13 -16 -82 81 79 0
-14 17 -82 81 79 0
14 -17 -82 81 79 0
60 -61 62 -86 0
60 -61 62 -85 0
60 -61 62 83 0
60 -61 62 -84 0
-24 60 -61 62 0
-22 60 -61 62 0
-23 60 -61 62 0
-7 60 62 0
-8 60 62 0
-27 60 -61 62 0
5 -25 60 -61 62 0
-5 25 60 -61 62 0
6 -26 60 -61 62 0
-6 26 60 -61 62 0
-69 70 71 82 0
-69 70 71 -81 0
-69 70 71 79 0
-69 70 71 -80 0
-18 -69 70 71 0
-16 -69 70 71 0
-17 -69 70 71 0
-15 70 71 0
-13 70 71 0
-14 70 71 0
-21 -69 70 71 0
-19 -69 70 71 0
169 -20 -69 70 71 0
-169 20 -69 70 71 0
-82 -81 79 190 0
-159 -82 -81 79 0
18 -35 -82 -81 79 0
-18 35 -82 -81 79 0
16 -33 -82 -81 79 0
-16 33 -82 -81 79 0
17 -34 -82 -81 79 0
-17 34 -82 -81 79 0
86 -85 83 91 0
86 -85 83 92 0
-28 86 -85 83 0
-29 86 -85 83 0
-27 -85 83 0
-25 -85 83 0
-26 -85 83 0
24 -32 86 -85 83 0
-24 32 86 -85 83 0
22 -30 86 -85 83 0
-22 30 86 -85 83 0
23 -31 86 -85 83 0
-23 31 86 -85 83 0
-82 -81 190 158 0
-35 190 0
-33 190 0
159 -34 190 0
-159 34 188 189 190 158 0
190 -111 110 108 0
-159 -111 110 108 0
-41 -111 108 0
-39 -111 108 0
-40 -111 108 0
-35 38 -111 110 108 0
35 -38 -111 108 0
-33 36 -111 110 108 0
33 -36 -111 108 0
-34 37 -111 110 108 0
34 -37 -111 110 108 0
-111 116 117 118 0
110 116 117 118 0
108 116 117 118 0
-109 116 117 118 0
-38 116 117 118 0
-36 116 117 118 0
-37 116 117 118 0
-41 42 116 117 118 0
41 -42 116 118 0
-39 116 117 118 0
-40 43 116 117 118 0
40 -43 116 117 118 0
188 -189 190 108 0
-38 188 -189 190 0
-36 188 -189 190 0
-37 188 -189 190 0
-34 -189 190 0
-41 188 -189 190 0
-39 188 -189 190 0
159 -40 188 -189 190 0
-159 40 188 -189 190 0
57 -58 59 -82 0
57 -58 59 -81 0
57 -58 59 79 0
57 -58 59 -80 0
-18 57 -58 59 0
-16 57 -58 59 0
-17 57 -58 59 0
-3 57 59 0
-4 57 59 0
-21 57 -58 59 0
1 -19 57 -58 59 0
-1 19 57 -58 59 0
2 -20 57 -58 59 0
-2 20 57 -58 59 0
-86 91 92 93 0
85 91 92 93 0
83 91 92 93 0
-84 91 92 93 0
-24 91 92 93 0
-22 91 92 93 0
-23 91 92 93 0
-27 28 91 92 93 0
27 -28 91 92 93 0
-25 91 92 93 0
-26 29 91 92 93 0
26 -29 91 92 93 0
86 111 110 109 0
85 111 110 109 0
83 111 110 108 109 0
-84 111 110 109 0
-24 111 110 108 109 0
-22 111 110 108 109 0
-23 111 110 108 109 0
-41 108 109 0
-39 108 109 0
-40 108 109 0
-27 38 111 110 108 109 0
27 -38 111 110 108 109 0
-25 36 111 110 108 109 0
25 -36 111 108 109 0
-26 37 111 110 108 109 0
26 -37 111 110 108 109 0
79 -86 85 83 0
-18 -86 85 83 0
-16 -86 85 83 0
-17 -86 85 83 0
-27 -86 83 0
-25 -86 83 0
-26 -86 83 0
-21 24 -86 85 83 0
21 -24 -86 85 83 0
-19 22 -86 85 83 0
19 -22 -86 85 83 0
-20 23 -86 85 83 0
20 -23 -86 85 83 0
-86 -85 83 108 0
-38 -86 -85 83 0
-36 -86 -85 83 0
-37 -86 -85 83 0
24 -41 -86 -85 83 0
-24 41 -86 -85 83 0
22 -39 -86 -85 83 0
-22 39 -86 -85 83 0
23 -40 -86 -85 83 0
-23 40 -86 -85 83 0
82 -81 79 83 0
-24 82 -81 79 0
-22 82 -81 79 0
-23 82 -81 79 0
-21 -81 79 0
-19 -81 79 0
-20 -81 79 0
18 -27 82 -81 79 0
-18 27 82 -81 79 0
16 -25 82 -81 79 0
-16 25 82 -81 79 0
17 -26 82 -81 79 0
-17 26 82 -81 79 0
172 151 204 205 0
172 -152 204 205 0
172 153 204 205 0
170 172 204 205 0
-151 -152 -153 0
-172 -151 -153 0
170 -151 -153 0
